\ LP format - for model browsing. Use MPS format to capture full model detail.
Minimize
  - 4 C21 - 40 C22 - 40 C23 - 48 C24 - 8 C25 - 16 C26 - 20 C27 - 96 C28
   - 16 C29 - 16 C30 - 4 C31 - 8 C32 - 8 C33 + 32 C34 + 32 C35 - 32 C36
   + 32 C37 - 16 C38 - 16 C39 + 16 C40 + 32 C41 - 8 C42 - 8 C43 + 16 C44
   + 4 C45 + 48 C46 + 48 C47 + 16 C48 + 24 C49 + 48 C50 + 24 C51 + 8 C52
   + 24 C53
Subject To
 R0: 4 C0 + 36 C1 + 24 C2 = 1
 R1: 4 C3 + 48 C4 + 24 C5 + 96 C6 + 12 C7 + 48 C8 + 24 C9 = 1
 R2: 4 C10 + 60 C11 + 60 C12 + 120 C13 + 60 C14 + 120 C15 + 120 C16
   + 120 C17 + 120 C18 + 120 C19 + 120 C20 = 1
 R3: 4 C21 + 72 C22 + 72 C23 + 144 C24 + 72 C25 + 144 C26 + 36 C27
   + 288 C28 + 144 C29 + 144 C30 + 36 C31 + 72 C32 + 72 C33 + 288 C34
   + 288 C35 + 288 C36 + 288 C37 + 48 C38 + 144 C39 + 144 C40 + 288 C41
   + 72 C42 + 72 C43 + 144 C44 + 12 C45 + 144 C46 + 144 C47 + 48 C48
   + 72 C49 + 144 C50 + 72 C51 + 24 C52 + 72 C53 = 1
 R4: 4 C0 + 4 C1 - 8 C2 - 4 C3 - 16 C4 - 8 C5 + 4 C7 + 16 C8 + 8 C9 = 0
 R5: 4 C3 + 16 C4 + 8 C5 - 4 C7 - 16 C8 - 8 C9 - 4 C10 - 28 C11 - 28 C12
   - 24 C13 + 4 C14 + 8 C15 - 24 C16 + 8 C17 + 8 C18 + 40 C19 + 40 C20 = 0
 R6: 4 C3 - 8 C5 - 4 C7 + 8 C9 - 4 C10 - 12 C11 + 4 C12 - 24 C13 + 20 C14
   + 24 C15 + 24 C16 + 8 C17 - 8 C18 - 8 C19 - 24 C20 = 0
 R7: 4 C3 + 16 C4 - 8 C5 - 32 C6 + 12 C7 + 16 C8 - 8 C9 - 4 C10 - 28 C11
   + 4 C12 + 8 C13 - 28 C14 - 24 C15 + 40 C16 + 8 C17 + 40 C18 - 24 C19
   + 8 C20 = 0
 R8: 4 C10 - 4 C11 + 28 C12 - 40 C13 + 28 C14 - 40 C15 - 8 C16 - 8 C17
   + 24 C18 - 8 C19 + 24 C20 - 4 C21 - 8 C22 - 40 C23 + 16 C24 - 8 C25
   + 48 C26 - 4 C27 + 32 C28 + 48 C29 - 16 C30 - 4 C31 + 24 C32 - 40 C33
   + 32 C34 + 32 C35 - 32 C36 + 32 C37 - 16 C38 - 16 C39 + 16 C40 + 32 C41
   - 8 C42 + 24 C43 - 48 C44 - 12 C45 - 16 C46 - 80 C47 + 16 C48 + 24 C49
   - 16 C50 - 8 C51 + 8 C52 - 8 C53 = 0
 R9: 4 C10 - 4 C11 + 12 C12 - 24 C13 - 20 C14 + 8 C15 + 24 C16 - 8 C17
   - 24 C18 + 24 C19 + 8 C20 - 4 C21 - 8 C22 - 24 C23 + 24 C25 + 16 C26
   - 4 C27 + 16 C29 + 48 C30 + 12 C31 + 8 C32 + 8 C33 - 32 C36 - 32 C38
   - 16 C39 + 24 C42 + 8 C43 + 32 C44 + 4 C45 - 16 C46 + 16 C47 - 16 C48
   - 24 C49 - 16 C50 - 8 C51 - 8 C52 - 8 C53 = 0
 R10: 4 C10 - 4 C11 - 4 C12 - 8 C13 - 4 C14 - 8 C15 - 8 C16 + 56 C17
   - 8 C18 - 8 C19 - 8 C20 - 4 C21 - 8 C22 - 8 C23 - 16 C24 + 24 C25
   + 16 C26 + 12 C27 + 32 C28 - 16 C29 + 16 C30 - 4 C31 + 24 C32 - 8 C33
   + 32 C34 - 32 C35 - 32 C36 + 32 C37 + 16 C38 + 16 C39 - 16 C40 - 32 C41
   - 40 C42 - 8 C43 - 16 C44 + 4 C45 - 16 C46 + 16 C47 - 16 C48 - 8 C49
   + 16 C50 - 8 C51 + 8 C52 + 24 C53 = 0
 R11: 4 C10 + 28 C11 + 28 C12 + 24 C13 - 4 C14 - 8 C15 + 24 C16 - 8 C17
   - 8 C18 - 40 C19 - 40 C20 - 4 C21 - 40 C22 - 40 C23 - 48 C24 - 8 C25
   - 16 C26 - 20 C27 - 96 C28 - 16 C29 - 16 C30 - 4 C31 - 8 C32 - 8 C33
   + 32 C34 + 32 C35 - 32 C36 + 32 C37 - 16 C38 - 16 C39 + 16 C40 + 32 C41
   - 8 C42 - 8 C43 + 16 C44 + 4 C45 + 48 C46 + 48 C47 + 16 C48 + 24 C49
   + 48 C50 + 24 C51 + 8 C52 + 24 C53 = 0
 R12: 4 C10 - 4 C11 - 20 C12 + 8 C13 + 12 C14 - 24 C15 + 24 C16 - 8 C17
   + 8 C18 + 24 C19 - 24 C20 - 4 C21 - 8 C22 + 8 C23 - 32 C24 - 8 C25
   + 48 C26 + 12 C27 + 16 C29 + 16 C30 + 12 C31 + 8 C32 + 8 C33 - 64 C34
   + 32 C36 - 16 C39 - 32 C40 - 8 C42 - 24 C43 - 12 C45 - 16 C46 + 16 C47
   + 16 C48 + 8 C49 + 16 C50 + 24 C51 - 8 C52 - 8 C53 = 0
 R13: 4 C10 + 12 C11 - 4 C12 + 24 C13 - 20 C14 - 24 C15 - 24 C16 - 8 C17
   + 8 C18 + 8 C19 + 24 C20 - 4 C21 - 24 C22 - 8 C23 - 48 C24 + 8 C25
   - 4 C27 - 16 C29 - 32 C30 + 12 C31 + 24 C32 + 24 C33 + 32 C34 + 64 C36
   + 16 C38 + 16 C39 + 16 C40 + 8 C42 + 8 C43 - 16 C44 + 4 C45 + 16 C46
   - 16 C47 - 8 C49 - 32 C50 - 8 C51 - 8 C52 - 24 C53 = 0
 R14: 4 C10 + 12 C11 - 20 C12 - 24 C13 - 4 C14 + 24 C15 + 8 C16 - 8 C17
   + 24 C18 - 24 C19 + 8 C20 - 4 C21 - 24 C22 + 8 C23 + 8 C25 + 12 C27
   + 32 C28 + 16 C29 - 4 C31 - 24 C32 + 8 C33 + 32 C35 - 32 C37 - 16 C39
   - 32 C41 + 8 C42 - 8 C43 + 4 C45 + 16 C46 - 16 C47 + 8 C49 - 8 C51
   + 8 C52 + 8 C53 = 0
 R15: 4 C10 + 28 C11 - 4 C12 - 8 C13 + 28 C14 + 24 C15 - 40 C16 - 8 C17
   - 40 C18 + 24 C19 - 8 C20 - 4 C21 - 40 C22 - 8 C23 - 16 C24 - 40 C25
   - 48 C26 - 4 C27 + 32 C28 - 16 C29 + 16 C30 - 4 C31 - 8 C32 - 8 C33
   - 32 C34 + 32 C35 + 32 C36 + 32 C37 + 16 C38 + 48 C39 - 16 C40 + 32 C41
   + 24 C42 + 24 C43 + 48 C44 - 12 C45 - 80 C46 - 16 C47 - 16 C48 - 8 C49
   + 16 C50 - 8 C51 + 8 C52 + 24 C53 = 0
 R16: 4 C10 + 28 C11 - 4 C12 - 8 C13 + 28 C14 + 24 C15 - 40 C16 - 8 C17
   - 40 C18 + 24 C19 - 8 C20 - 4 C21 - 40 C22 - 8 C23 - 16 C24 - 8 C25
   - 16 C26 + 12 C27 + 96 C28 + 48 C29 + 48 C30 - 36 C31 - 40 C32 - 40 C33
   - 32 C34 - 160 C35 - 32 C36 - 32 C37 + 16 C38 + 48 C39 + 48 C40 + 96 C41
   - 8 C42 + 24 C43 - 16 C44 + 4 C45 + 48 C46 + 48 C47 + 16 C48 - 8 C49
   - 16 C50 + 24 C51 - 24 C52 - 40 C53 = 0
 R17: 4 C3 + 16 C4 - 8 C5 - 32 C6 + 12 C7 + 16 C8 - 8 C9 = 0
 R18: 4 C10 + 12 C11 - 20 C12 - 24 C13 - 4 C14 + 24 C15 + 8 C16 - 8 C17
   + 24 C18 - 24 C19 + 8 C20 = 0
 R19: 4 C10 + 28 C11 - 4 C12 - 8 C13 + 28 C14 + 24 C15 - 40 C16 - 8 C17
   - 40 C18 + 24 C19 - 8 C20 = 0
 R20: 4 C21 + 8 C22 + 8 C23 - 48 C24 + 40 C25 - 16 C26 + 20 C27 - 32 C28
   + 16 C29 - 16 C30 + 4 C31 - 24 C32 + 40 C33 + 32 C34 - 32 C35 - 32 C36
   - 32 C37 - 16 C38 + 16 C39 + 16 C40 + 96 C41 - 24 C42 + 8 C43 + 16 C44
   - 4 C45 - 48 C46 - 48 C47 + 16 C48 + 8 C49 + 48 C50 - 24 C51 - 8 C52
   + 8 C53 = 0
 R21: 4 C21 + 8 C22 - 8 C23 - 32 C24 + 8 C25 + 16 C26 + 4 C27 + 16 C29
   - 16 C30 - 12 C31 - 8 C32 - 8 C33 + 32 C36 - 16 C39 + 32 C40 + 8 C42
   - 8 C43 - 4 C45 - 16 C46 + 16 C47 - 16 C48 - 8 C49 - 16 C50 + 8 C51
   + 8 C52 + 8 C53 = 0
 R22: 4 C21 + 8 C22 - 24 C23 - 16 C24 + 8 C25 + 16 C26 - 12 C27 + 32 C28
   - 16 C29 + 16 C30 + 4 C31 - 24 C32 + 8 C33 + 32 C34 + 32 C35 - 32 C36
   - 32 C37 + 16 C38 + 16 C39 - 16 C40 - 32 C41 + 8 C42 + 8 C43 - 16 C44
   - 4 C45 - 16 C46 + 16 C47 - 16 C48 + 40 C49 + 16 C50 + 8 C51 - 8 C52
   - 24 C53 = 0
 R23: 4 C21 + 8 C22 - 24 C23 - 16 C24 - 24 C25 - 16 C26 - 12 C27 + 32 C28
   + 16 C29 + 48 C30 + 36 C31 + 8 C32 + 8 C33 - 32 C34 + 32 C35 - 32 C36
   - 96 C37 + 16 C38 + 16 C39 + 48 C40 + 32 C41 - 24 C42 - 24 C43 - 16 C44
   - 4 C45 + 16 C46 + 16 C47 + 16 C48 - 24 C49 - 16 C50 - 24 C51 + 24 C52
   + 8 C53 = 0
 R24: 4 C21 + 8 C22 - 24 C23 - 16 C24 + 8 C25 - 48 C26 + 4 C27 - 32 C28
   + 80 C29 + 16 C30 + 4 C31 + 40 C32 - 24 C33 - 32 C34 - 32 C35 + 32 C36
   - 32 C37 + 16 C38 + 16 C39 - 16 C40 - 32 C41 + 8 C42 - 24 C43 + 48 C44
   + 12 C45 + 16 C46 - 48 C47 - 16 C48 + 40 C49 + 16 C50 + 8 C51 - 8 C52
   + 8 C53 = 0
 R25: 4 C21 + 24 C22 - 8 C23 - 8 C25 - 12 C27 - 32 C28 - 16 C29 + 4 C31
   + 24 C32 - 8 C33 - 32 C35 + 32 C37 + 16 C39 + 32 C41 - 8 C42 + 8 C43
   - 4 C45 - 16 C46 + 16 C47 - 8 C49 + 8 C51 - 8 C52 - 8 C53 = 0
 R26: 4 C21 + 40 C22 + 8 C23 + 16 C24 + 40 C25 + 48 C26 + 4 C27 - 32 C28
   + 16 C29 - 16 C30 + 4 C31 + 8 C32 + 8 C33 + 32 C34 - 32 C35 - 32 C36
   - 32 C37 - 16 C38 - 48 C39 + 16 C40 - 32 C41 - 24 C42 - 24 C43 - 48 C44
   + 12 C45 + 80 C46 + 16 C47 + 16 C48 + 8 C49 - 16 C50 + 8 C51 - 8 C52
   - 24 C53 = 0
 R27: 4 C21 + 24 C22 - 24 C23 - 48 C24 + 24 C25 + 96 C26 - 12 C27 - 48 C29
   - 12 C31 - 24 C32 - 24 C33 - 96 C34 + 16 C38 + 48 C39 - 48 C40 + 24 C42
   + 24 C43 + 48 C44 + 12 C45 + 48 C46 - 48 C47 + 32 C48 - 24 C49 - 24 C51
   + 8 C52 + 24 C53 = 0
 R28: 4 C21 + 40 C22 + 8 C23 + 16 C24 + 8 C25 + 16 C26 - 12 C27 - 96 C28
   - 48 C29 - 48 C30 + 36 C31 + 40 C32 + 40 C33 + 32 C34 + 160 C35 + 32 C36
   + 32 C37 - 16 C38 - 48 C39 - 48 C40 - 96 C41 + 8 C42 - 24 C43 + 16 C44
   - 4 C45 - 48 C46 - 48 C47 - 16 C48 + 8 C49 + 16 C50 - 24 C51 + 24 C52
   + 40 C53 = 0
 R29: - 32 C25 + 32 C26 - 16 C27 + 64 C28 - 64 C29 + 32 C30 - 32 C31
   + 32 C32 - 32 C33 + 128 C34 - 64 C35 + 64 C36 - 64 C37 - 64 C39 + 64 C40
   - 64 C41 + 32 C42 - 64 C43 + 64 C44 - 16 C45 + 32 C48 + 96 C50 - 96 C51
   - 32 C52 = 0
 qc0: 4 C21 + 8 C22 + 8 C23 - 48 C24 + 8 C25 - 48 C26 + 36 C27 + 32 C28
   + 16 C29 - 48 C30 + 36 C31 + 8 C32 + 8 C33 - 96 C34 + 32 C35 - 96 C36
   + 32 C37 - 16 C38 + 16 C39 - 48 C40 + 32 C41 + 8 C42 + 72 C43 - 48 C44
   + 12 C45 + 16 C46 + 16 C47 - 16 C48 + 8 C49 - 48 C50 + 72 C51 + 24 C52
   + 8 C53 + [ - 16 C0 ^2 - 32 C0 * C1 + 64 C0 * C2 - 16 C1 ^2 + 64 C1 * C2
   - 64 C2 ^2 ] = 0
Bounds
 C0 <= 1
 C1 <= 1
 C2 <= 1
 C3 <= 1
 C4 <= 1
 C5 <= 1
 C6 <= 1
 C7 <= 1
 C8 <= 1
 C9 <= 1
 C10 <= 1
 C11 <= 1
 C12 <= 1
 C13 <= 1
 C14 <= 1
 C15 <= 1
 C16 <= 1
 C17 <= 1
 C18 <= 1
 C19 <= 1
 C20 <= 1
 C21 <= 1
 C22 <= 1
 C23 <= 1
 C24 <= 1
 C25 <= 1
 C26 <= 1
 C27 <= 1
 C28 <= 1
 C29 <= 1
 C30 <= 1
 C31 <= 1
 C32 <= 1
 C33 <= 1
 C34 <= 1
 C35 <= 1
 C36 <= 1
 C37 <= 1
 C38 <= 1
 C39 <= 1
 C40 <= 1
 C41 <= 1
 C42 <= 1
 C43 <= 1
 C44 <= 1
 C45 <= 1
 C46 <= 1
 C47 <= 1
 C48 <= 1
 C49 <= 1
 C50 <= 1
 C51 <= 1
 C52 <= 1
 C53 <= 1
End
